p cnf 965 2336
c ind 532 529 542 521 507 539 544 536 543 535 0
c ind 540 541 524 534 523 533 517 518 537 538 0
c ind 531 530 505 519 522 527 528 516 520 525 0
c ind 526 510 511 509 514 515 512 513 508 506 0
c ind 1 0
c ret 545 604 605 606 607 608 609 610 611 612 0
c ret 613 614 615 616 617 618 619 620 621 622 0
c ret 623 624 625 626 627 628 629 630 631 632 0
c ret 633 634 635 636 637 638 639 640 641 642 0
c ret 643 644 645 646 647 648 649 650 651 652 0
c ret 653 654 655 656 657 658 659 660 661 662 0
c ret 663 664 665 666 667 668 669 670 671 672 0
c ret 673 674 675 676 677 678 679 680 681 682 0
c ret 683 684 685 686 687 688 689 690 691 692 0
c ret 693 694 695 696 697 698 699 700 701 702 0
c ret 703 704 705 706 707 708 709 710 711 712 0
c ret 713 714 715 716 717 718 719 720 721 722 0
c ret 723 724 725 726 727 728 729 730 731 732 0
c ret 733 734 735 736 737 738 739 740 741 742 0
c ret 743 744 745 746 747 748 749 750 751 752 0
c ret 753 754 755 756 757 758 759 760 761 762 0
c ret 763 764 765 766 767 768 769 770 771 772 0
c ret 773 774 775 776 777 778 779 780 781 782 0
c ret 783 784 785 786 787 788 789 790 791 792 0
c ret 793 794 795 796 797 798 799 800 801 802 0
c ret 803 804 805 806 807 808 809 810 811 812 0
c ret 813 814 815 816 817 818 819 820 821 822 0
c ret 823 824 825 826 827 828 829 830 831 832 0
c ret 833 834 835 836 837 838 839 840 841 842 0
c ret 843 844 845 846 847 848 849 850 851 852 0
c ret 853 854 855 856 857 858 859 860 861 862 0
c ret 863 864 865 866 867 868 869 870 871 872 0
c ret 873 874 875 876 877 878 879 880 881 882 0
c ret 883 884 885 886 887 888 889 890 891 892 0
c ret 893 894 895 896 897 898 899 900 901 902 0
c ret 903 904 905 906 907 908 909 910 911 912 0
c ret 913 914 915 916 917 918 919 920 921 922 0
c ret 923 546 924 925 926 927 928 929 930 931 0
c ret 932 933 547 934 935 936 937 938 939 940 0
c ret 941 942 943 548 944 945 946 947 948 949 0
c ret 950 951 952 953 549 954 955 956 957 958 0
c ret 959 960 961 962 963 550 551 552 553 554 0
c ret 555 556 557 558 559 560 561 562 563 564 0
c ret 565 566 567 568 569 570 571 572 573 574 0
c ret 575 576 577 578 579 580 581 582 583 584 0
c ret 585 586 587 588 589 590 591 592 593 594 0
c ret 595 596 597 598 599 600 601 602 603 0
2 -3 -54 60 -61 0
-2 61 0
-2 3 0
-2 54 0
-2 -60 0
3 4 53 739 0
3 -4 53 -739 0
3 -4 673 -739 0
3 4 673 739 0
-3 4 -739 0
-3 -4 739 0
-3 -53 -673 0
4 -5 -47 0
-4 5 0
-4 47 0
5 -6 -39 0
-5 6 0
-5 39 0
6 -7 -31 0
-6 7 0
-6 31 0
7 -8 -24 0
-7 8 0
-7 24 0
8 -9 20 0
-8 9 0
-8 -20 0
9 10 -13 0
-9 -10 0
-9 13 0
10 11 -584 0
10 11 -687 0
-10 -11 0
-10 584 687 0
11 -12 686 -687 0
11 -686 -687 747 0
-11 687 0
-11 -686 -747 0
-11 12 686 0
12 556 739 0
12 644 -739 0
-12 -644 -739 0
-12 -556 739 0
13 14 -17 0
-13 -14 0
-13 17 0
14 15 -687 0
14 15 -703 0
-14 -15 0
-14 687 703 0
15 -16 686 -687 0
15 -686 -687 688 0
-15 687 0
-15 -686 -688 0
-15 16 686 0
16 677 739 0
16 723 -739 0
-16 -723 -739 0
-16 -677 739 0
17 18 -687 0
17 18 599 0
-17 -18 0
-17 -599 687 0
18 19 686 -687 0
18 19 -687 -726 0
-18 687 0
-18 -19 0
-18 -686 726 0
19 601 686 -739 0
19 686 711 739 0
-19 -686 0
-19 -601 -739 0
-19 -711 739 0
20 21 -679 0
20 21 -687 0
-20 -21 0
-20 679 687 0
21 548 -686 -687 0
21 -22 686 -687 0
-21 687 0
-21 22 686 0
-21 -548 -686 0
22 705 739 0
22 -23 -739 -742 0
22 23 -739 742 0
-22 -705 739 0
-22 -23 -739 742 0
-22 23 -739 -742 0
23 621 -725 0
23 -621 725 0
-23 -621 -725 0
-23 621 725 0
24 -25 0
24 687 736 0
-24 25 -687 0
-24 25 -736 0
25 640 -686 -687 0
25 -26 686 -687 0
-25 687 0
-25 26 686 0
-25 -640 -686 0
26 27 -739 0
26 27 589 0
-26 -27 0
-26 -589 739 0
27 -30 -739 -743 0
27 -28 -739 -743 0
27 28 30 -739 743 0
-27 -30 743 0
-27 -28 743 0
-27 739 0
-27 28 30 -743 0
28 -29 651 0
-28 -651 0
-28 29 0
29 725 -742 0
29 621 725 0
29 621 -742 0
-29 -621 -725 0
-29 -725 742 0
-29 -621 742 0
29 30 -651 0
-30 651 0
-29 -30 0
31 -32 0
31 639 687 0
-31 32 -639 0
-31 32 -687 0
32 615 -686 -687 0
32 -33 686 -687 0
-32 687 0
-32 33 686 0
-32 -615 -686 0
33 34 -739 0
33 34 694 0
-33 -34 0
-33 -694 739 0
34 -38 -573 -739 0
34 -35 -573 -739 0
34 35 38 573 -739 0
-34 -35 573 0
-34 35 38 -573 0
-34 739 0
-34 -38 573 0
35 36 685 0
-35 -685 0
-35 -36 0
28 36 37 0
-28 -36 0
-36 -37 0
30 37 -743 0
-37 743 0
-30 -37 0
-36 38 -685 0
-38 685 0
36 -38 0
39 -40 0
39 554 687 0
-39 40 -554 0
-39 40 -687 0
40 590 -686 -687 0
40 -41 686 -687 0
-40 687 0
-40 41 686 0
-40 -590 -686 0
41 42 -739 0
41 42 578 0
-41 -42 0
-41 -578 739 0
42 -46 -706 -739 0
42 -43 -706 -739 0
42 43 46 706 -739 0
-42 -43 706 0
-42 43 46 -706 0
-42 739 0
-42 -46 706 0
43 44 600 0
-43 -600 0
-43 -44 0
35 44 45 0
-35 -44 0
-44 -45 0
38 45 -573 0
-45 573 0
-38 -45 0
-44 46 -600 0
-46 600 0
44 -46 0
47 -48 0
47 670 687 0
-47 48 -670 0
-47 48 -687 0
48 634 -686 -687 0
48 -49 686 -687 0
-48 687 0
-48 49 686 0
-48 -634 -686 0
49 673 739 0
49 50 -52 -739 0
49 -50 52 -739 0
-49 -673 739 0
-49 -50 -52 -739 0
-49 50 52 -739 0
43 50 51 0
-43 -50 0
-50 -51 0
46 51 -706 0
-51 706 0
-46 -51 0
52 -551 -664 0
52 551 664 0
-52 551 -664 0
-52 -551 664 0
5 -47 53 0
-5 47 53 0
-5 -47 -53 0
5 47 -53 0
54 -56 -673 0
-53 54 55 0
54 55 -673 0
-53 54 -56 0
53 -54 673 0
-54 -55 56 0
-4 55 -572 0
-55 572 0
4 -55 0
56 -57 -611 0
56 57 611 0
-56 -57 611 0
-56 57 -611 0
57 58 707 0
57 58 -560 0
57 58 -641 0
-57 -58 0
-57 560 641 -707 0
58 59 -611 686 0
58 59 -686 -740 0
-58 -59 0
-58 -686 740 0
-58 611 686 0
59 560 641 0
-59 -560 0
-59 -641 0
55 60 -641 0
-56 60 641 0
-55 -60 -641 0
56 -60 641 0
61 62 63 -65 695 0
61 -62 63 -65 -695 0
-61 -63 0
-61 -62 695 0
-61 65 0
-61 62 -695 0
-4 -57 62 0
4 -62 0
57 -62 0
63 -64 -578 0
63 64 578 0
-63 -64 578 0
-63 64 -578 0
6 -39 64 0
-6 39 64 0
-6 -39 -64 0
6 39 -64 0
65 -66 670 687 0
48 65 -66 -670 0
-48 65 -66 670 0
-65 66 0
-48 -65 -670 0
48 -65 670 -687 0
66 -67 554 687 0
40 66 -67 -554 0
-40 66 -67 554 0
-66 67 0
-40 -66 -554 0
40 -66 554 -687 0
67 -68 -414 -504 694 0
67 -68 -414 504 -694 0
-67 68 0
-67 -504 -694 0
-67 414 0
-67 504 694 0
68 69 -96 -139 597 0
68 -69 -96 -139 -597 0
-68 139 0
-68 69 -597 0
-68 96 0
-68 -69 597 0
69 70 -79 0
69 70 -75 -92 0
69 70 75 92 0
-69 -70 0
-69 -75 79 92 0
-69 75 79 -92 0
70 -71 -72 0
70 -72 719 0
-70 72 0
-70 71 -719 0
71 -695 0
71 -686 -753 0
-71 695 753 0
-71 686 695 0
72 73 74 0
72 565 689 0
72 74 689 0
72 73 565 0
-72 -73 -689 0
-72 -74 -565 0
73 686 -695 0
-73 -686 0
-73 695 0
74 -686 -695 0
74 -686 -753 0
-74 686 0
-74 695 753 0
75 -76 -77 0
75 -77 566 0
-75 77 0
-75 76 -566 0
76 -695 0
76 -598 -686 0
-76 598 695 0
-76 686 695 0
73 77 78 0
77 558 597 0
77 78 597 0
73 77 558 0
-73 -77 -597 0
-77 -78 -558 0
78 -598 -686 0
78 -686 -695 0
-78 686 0
-78 598 695 0
79 -80 -82 -84 -86 0
-79 86 0
-79 80 0
-79 84 0
-79 82 0
-76 80 -81 0
80 -81 647 0
-80 81 0
76 -80 -647 0
73 81 732 0
78 81 693 0
73 78 81 0
81 693 732 0
-73 -81 -693 0
-78 -81 -732 0
-76 82 -83 0
82 -83 682 0
-82 83 0
76 -82 -682 0
73 83 697 0
78 83 683 0
73 78 83 0
83 683 697 0
-73 -83 -683 0
-78 -83 -697 0
-76 84 -85 0
84 -85 588 0
-84 85 0
76 -84 -588 0
73 85 662 0
78 85 555 0
73 78 85 0
85 555 662 0
-73 -85 -555 0
-78 -85 -662 0
-75 86 -87 -508 0
-86 508 0
-86 87 0
75 -86 0
87 -88 -90 0
-87 88 0
-87 90 0
-76 88 -89 0
88 -89 738 0
-88 89 0
76 -88 -738 0
73 89 710 0
78 89 669 0
73 78 89 0
89 669 710 0
-73 -89 -669 0
-78 -89 -710 0
-76 90 -91 0
90 -91 616 0
-90 91 0
76 -90 -616 0
73 78 91 0
91 628 737 0
78 91 737 0
73 91 628 0
-73 -91 -737 0
-78 -91 -628 0
82 92 -93 0
-82 -92 0
-92 93 0
84 93 -94 0
-84 -93 0
-93 94 0
80 94 -95 0
-80 -94 0
-94 95 0
88 90 95 0
-88 -95 0
-90 -95 0
96 97 131 0
96 -104 -123 131 0
-96 -131 0
-96 -97 104 0
-96 -97 123 0
97 -98 506 0
-97 -506 0
-97 98 0
98 -99 549 0
-98 -549 0
-98 99 0
99 -100 606 0
-99 -606 0
-99 100 0
100 -101 602 0
-100 -602 0
-100 101 0
101 -102 557 0
-101 -557 0
-101 102 0
102 -103 594 0
-102 -594 0
-102 103 0
103 658 661 713 715 0
-103 -715 0
-103 -713 0
-103 -658 0
-103 -661 0
104 -105 -618 0
104 -119 -681 0
104 -618 -681 0
104 -105 -119 0
-104 105 681 0
-104 119 618 0
105 106 110 -116 0
105 110 -116 574 0
-105 116 0
-105 -110 0
-105 -106 -574 0
106 107 -580 0
-106 580 0
-106 -107 0
107 -675 0
107 -508 -684 0
107 108 0
107 508 684 0
-107 -108 -508 675 684 0
-107 -108 508 675 -684 0
108 -109 730 0
-108 -730 0
-108 109 0
109 579 581 633 0
-109 -579 0
-109 -633 0
-109 -581 0
110 -111 -539 0
-110 539 0
-110 111 0
106 111 112 114 0
-106 -111 0
-111 -114 0
-111 -112 0
-109 112 -113 -580 -730 0
-112 113 0
-112 580 0
109 -112 0
-112 730 0
113 675 -684 0
-113 -675 0
-113 684 0
-109 114 -115 0
109 -114 0
-114 115 0
115 -580 -666 -675 -684 0
-115 684 0
-115 580 0
-115 675 0
-115 666 0
116 117 118 0
116 540 541 0
116 118 541 0
116 117 540 0
-116 -117 -541 0
-116 -118 -540 0
-114 117 -730 0
-117 730 0
114 -117 0
-108 -115 118 0
108 -118 0
115 -118 0
111 119 120 -121 0
119 120 -121 729 0
-119 121 0
-119 -120 0
-111 -119 -729 0
-117 120 -544 0
-120 544 0
117 -120 0
121 122 543 0
118 121 122 0
-121 -122 0
-118 -121 -543 0
-112 122 -642 0
-122 642 0
112 -122 0
123 -124 -629 0
123 -127 -609 0
123 -609 -629 0
123 -124 -127 0
-123 127 629 0
-123 124 609 0
111 124 -125 0
124 -125 681 0
-124 125 0
-111 -124 -681 0
112 125 126 724 0
106 112 125 126 0
-125 -126 0
-112 -125 0
-106 -125 -724 0
-114 126 -538 730 0
-114 126 -537 -730 0
114 -126 0
-126 538 730 0
-126 537 -730 0
106 127 128 -129 0
127 128 -129 666 0
-127 129 0
-127 -128 0
-106 -127 -666 0
-111 128 -587 0
-128 587 0
111 -128 0
117 129 -130 0
129 -130 531 0
-129 130 0
-117 -129 -531 0
112 130 530 0
118 130 528 0
112 118 130 0
130 528 530 0
-112 -130 -528 0
-118 -130 -530 0
131 132 -134 0
131 132 137 0
131 132 138 0
-131 -132 0
-131 134 -137 -138 0
132 133 -505 506 0
112 132 -505 506 0
-132 505 0
-132 -506 0
-112 -132 -133 0
-98 133 -505 -568 0
-133 505 0
-133 568 0
98 -133 0
134 136 -505 506 0
134 135 -505 506 0
-134 505 0
-134 -506 0
-134 -135 -136 0
-112 -133 135 -642 0
-135 642 0
112 -135 0
133 -135 0
136 -574 -631 -696 -724 0
-136 724 0
-136 574 0
-136 696 0
-136 631 0
137 -532 542 642 -696 0
137 -532 -542 -642 -696 0
137 532 542 642 696 0
137 532 -542 -642 696 0
-137 532 -696 0
-137 -532 696 0
-137 -542 642 0
-137 542 -642 0
138 -521 529 631 -724 0
138 -521 -529 -631 -724 0
138 521 529 631 724 0
138 521 -529 -631 724 0
-138 521 -724 0
-138 -521 724 0
-138 -529 631 0
-138 529 -631 0
139 -140 -171 -403 -407 0
-139 407 0
-139 140 0
-139 403 0
-139 171 0
140 -141 -151 -161 0
140 -142 -151 -161 0
-140 161 0
-140 151 0
-140 141 142 0
98 141 506 0
-141 -506 0
-98 -141 0
142 576 587 0
142 -143 -147 0
142 -147 587 0
142 -143 576 0
-142 143 -587 0
-142 147 -576 0
-97 143 144 0
-97 -111 143 -735 0
97 -143 0
-143 -144 735 0
111 -143 -144 0
106 144 145 -146 0
144 145 -146 696 0
-144 146 0
-144 -145 0
-106 -144 -696 0
-118 145 -533 0
-145 533 0
118 -145 0
112 146 534 0
117 146 526 0
112 117 146 0
146 526 534 0
-112 -146 -526 0
-117 -146 -534 0
-97 147 148 0
-97 -111 147 -629 0
97 -147 0
-147 -148 629 0
111 -147 -148 0
106 148 149 -150 0
148 149 -150 -666 0
-148 150 0
-148 -149 0
-106 -148 666 0
-117 149 -524 0
-149 524 0
117 -149 0
112 118 150 0
150 523 525 0
118 150 525 0
112 150 523 0
-112 -150 -525 0
-118 -150 -523 0
151 -152 153 158 705 0
151 152 153 158 -705 0
-151 -153 0
-151 152 705 0
-151 -158 0
-151 -152 -705 0
-9 -20 152 0
9 20 152 0
9 -20 -152 0
-9 20 -152 0
141 153 154 -735 0
-153 735 0
-153 -154 0
-141 -153 0
-97 154 155 0
-97 -111 154 -609 0
97 -154 0
-154 -155 609 0
111 -154 -155 0
106 155 156 -157 0
155 156 -157 631 0
-155 157 0
-155 -156 0
-106 -155 -631 0
-118 156 -535 0
-156 535 0
118 -156 0
112 157 536 0
117 157 527 0
112 117 157 0
157 527 536 0
-112 -157 -527 0
-117 -157 -536 0
158 159 -604 0
158 159 -746 0
-98 158 -159 604 0
98 -158 -159 0
-158 159 604 746 0
-158 -159 -604 0
159 160 506 0
-159 -506 0
-159 -160 0
-98 160 580 0
-160 -580 0
98 -160 0
161 162 687 736 0
25 161 162 -736 0
-25 161 162 736 0
-161 -162 0
-25 -161 -736 0
25 -161 -687 736 0
162 -506 -602 0
-101 162 -602 0
-101 162 163 506 0
101 -162 506 0
-162 -506 602 0
-162 -163 602 0
163 -164 606 0
163 512 606 0
-163 -606 0
-163 164 -512 0
164 -165 514 0
-164 -514 0
-164 165 0
165 -166 513 0
-165 -513 0
-165 166 0
166 -167 515 0
-166 -515 0
-166 167 0
167 -168 511 0
-167 -511 0
-167 168 0
168 -169 509 0
-168 -509 0
-168 169 0
169 170 510 0
169 -509 510 0
169 510 -511 0
-169 -510 0
-169 -170 509 511 0
170 512 513 514 515 0
-170 -515 0
-170 -514 0
-170 -512 0
-170 -513 0
171 -172 -181 -395 -398 0
-171 398 0
-171 172 0
-171 395 0
-171 181 0
-141 172 -178 -750 0
172 173 -178 750 0
172 -173 -178 -750 0
-172 178 0
-172 -173 750 0
141 -172 173 -750 0
173 -174 -177 0
-173 174 0
-173 177 0
174 -175 -675 -684 0
-174 675 0
-174 684 0
-174 175 0
175 -176 -730 0
-175 730 0
-175 176 0
176 -579 -581 -633 0
-176 579 0
-176 581 0
-176 633 0
-97 177 -580 666 0
-177 580 0
-177 -666 0
97 -177 0
178 179 -587 0
143 178 745 0
143 178 179 0
178 -587 745 0
-178 -179 -745 0
-143 -178 587 0
141 179 180 0
-141 -179 0
-179 -180 0
-97 180 -645 0
-180 645 0
97 -180 0
181 -182 -185 -202 -209 0
-181 209 0
-181 182 0
-181 202 0
-181 185 0
182 -183 649 0
99 182 -183 0
182 -183 -506 0
-182 183 0
-99 -182 506 -649 0
183 -184 677 0
183 184 -677 0
-183 -184 -677 0
-183 184 677 0
-14 -17 184 0
14 17 184 0
14 -17 -184 0
-14 17 -184 0
185 -186 196 -197 -572 0
185 -186 196 197 572 0
-185 -196 0
-185 -197 572 0
-185 186 0
-185 197 -572 0
186 -187 194 0
186 192 194 -659 0
-186 -194 0
-186 187 -192 0
-186 187 659 0
187 188 659 0
-187 -659 0
-187 -188 0
188 189 -190 0
-188 -189 0
-188 190 0
189 -686 691 0
189 686 690 0
189 686 695 0
-189 -686 -691 0
-189 686 -690 -695 0
190 191 -619 0
190 191 -752 0
190 191 563 0
-190 -191 0
-190 -563 619 752 0
191 695 752 0
191 563 674 752 0
-191 -752 0
-191 -674 -695 0
-191 -563 -695 0
-189 -190 192 193 0
190 -192 0
189 -192 0
-192 -193 0
193 686 695 0
-193 -686 0
-193 -695 0
194 -195 737 0
194 195 -737 0
-194 -195 -737 0
-194 195 737 0
70 -90 195 0
-70 -195 0
90 -195 0
196 -506 -606 0
-100 196 -606 0
-196 606 0
100 -196 506 0
197 198 506 0
-197 -506 0
-197 -198 0
198 -199 -200 0
198 -200 646 0
-198 200 0
-198 199 -646 0
199 -695 0
199 -653 -686 0
-199 653 695 0
-199 686 695 0
73 200 630 0
200 201 586 0
73 200 201 0
200 586 630 0
-73 -200 -586 0
-200 -201 -630 0
201 -653 -686 0
201 -686 -695 0
-201 686 0
-201 653 695 0
160 202 713 0
202 -203 205 0
160 202 -203 0
202 205 713 0
-202 203 -713 0
-160 -202 -205 0
203 204 506 0
99 203 506 0
-203 -506 0
-99 -203 -204 0
167 204 511 0
167 204 509 510 0
-167 -204 0
-204 -510 -511 0
-204 -509 -511 0
205 206 506 0
-205 -506 0
-205 -206 0
206 207 208 -570 0
206 207 208 745 0
-206 -208 0
-206 -207 0
-206 570 -745 0
207 -568 580 585 604 0
-207 -604 0
-207 -585 0
-207 568 0
-207 -580 0
208 -593 614 0
-208 593 0
-208 -614 0
209 -210 -349 -358 -362 0
-209 362 0
-209 210 0
-209 358 0
-209 349 0
210 -211 -335 -345 -348 0
-210 348 0
-210 211 0
-210 345 0
-210 335 0
211 -212 -238 -278 -305 0
-211 305 0
-211 212 0
-211 278 0
-211 238 0
212 -213 -228 -235 -236 0
-212 236 0
-212 213 0
-212 235 0
-212 228 0
213 -214 -219 -223 -225 0
-213 225 0
-213 214 0
-213 223 0
-213 219 0
57 214 215 0
214 -622 707 0
214 215 707 0
57 214 -622 0
-57 -214 -707 0
-214 -215 622 0
215 -216 -735 0
-215 735 0
-215 216 0
216 -217 -218 519 525 0
-216 -519 0
-216 218 0
-216 217 0
-216 -525 0
217 526 -527 528 0
-217 -526 0
-217 527 0
-217 -528 0
218 506 -717 0
-218 -506 0
-218 717 0
219 -220 -601 0
169 218 219 0
218 219 -601 0
169 219 -220 0
-169 -219 601 0
-218 -219 220 0
220 -221 -222 587 0
220 -221 -222 -727 0
-220 222 0
-220 221 0
-220 -587 727 0
221 576 609 0
221 -648 -699 0
221 609 -699 0
221 576 -648 0
-221 -609 648 0
-221 -576 699 0
222 618 629 0
222 -671 -678 0
222 629 -678 0
222 618 -671 0
-222 -629 671 0
-222 -618 678 0
-91 223 -608 0
223 -224 -616 0
223 -608 -616 0
-91 223 -224 0
91 -223 616 0
-223 224 608 0
73 224 632 0
74 224 550 0
73 74 224 0
224 550 632 0
-73 -224 -550 0
-74 -224 -632 0
225 -226 -731 0
225 -227 -620 0
225 -620 -731 0
225 -226 -227 0
-225 227 731 0
-225 226 620 0
73 74 226 0
226 637 701 0
74 226 701 0
73 226 637 0
-73 -226 -701 0
-74 -226 -637 0
73 74 227 0
227 564 665 0
74 227 665 0
73 227 564 0
-73 -227 -665 0
-74 -227 -564 0
228 229 -232 -647 0
-81 228 229 -232 0
-228 232 0
-228 -229 0
81 -228 647 0
229 231 506 0
229 230 506 -717 0
-229 -506 0
-229 -231 717 0
-229 -230 -231 0
230 -575 681 0
230 -591 735 0
230 -575 -591 0
230 681 735 0
-230 575 -735 0
-230 591 -681 0
231 520 522 0
231 -638 -663 0
231 520 -663 0
231 522 -638 0
-231 -520 638 0
-231 -522 663 0
232 -233 -709 0
232 -234 -562 0
232 -562 -709 0
232 -233 -234 0
-232 234 709 0
-232 233 562 0
73 233 692 0
74 233 612 0
73 74 233 0
233 612 692 0
-73 -233 -612 0
-74 -233 -692 0
73 74 234 0
234 700 741 0
74 234 741 0
73 234 700 0
-73 -234 -741 0
-74 -234 -700 0
15 -169 235 0
235 601 703 0
-169 235 703 0
15 235 601 0
-15 -235 -703 0
169 -235 -601 0
-72 236 -547 0
236 -237 -719 0
236 -547 -719 0
-72 236 -237 0
72 -236 719 0
-236 237 547 0
73 74 237 0
237 552 680 0
74 237 680 0
73 237 552 0
-73 -237 -680 0
-74 -237 -552 0
238 -239 -257 -262 -267 0
-238 267 0
-238 239 0
-238 262 0
-238 257 0
239 -240 -251 -254 -256 0
-239 256 0
-239 240 0
-239 254 0
-239 251 0
240 -241 -242 -243 -246 0
-240 246 0
-240 241 0
-240 243 0
-240 242 0
241 697 698 700 710 0
-241 -710 0
-241 -700 0
-241 -697 0
-241 -698 0
242 -687 688 691 692 0
-242 -692 0
-242 -691 0
-242 687 0
-242 -688 0
243 -245 -722 0
243 244 -245 0
-243 245 0
-243 -244 722 0
244 506 -520 0
-244 -506 0
-244 520 0
245 -726 732 740 747 0
-245 -747 0
-245 -740 0
-245 726 0
-245 -732 0
246 -247 -248 -249 -250 0
-246 250 0
-246 247 0
-246 249 0
-246 248 0
247 615 621 628 630 0
-247 -630 0
-247 -628 0
-247 -615 0
-247 -621 0
248 583 590 600 605 0
-248 -605 0
-248 -600 0
-248 -583 0
-248 -590 0
249 651 662 664 685 0
-249 -685 0
-249 -664 0
-249 -651 0
-249 -662 0
250 632 634 637 640 0
-250 -640 0
-250 -637 0
-250 -632 0
-250 -634 0
-244 251 -252 253 0
251 -252 253 748 0
-251 252 0
-251 -253 0
244 -251 -748 0
252 -516 592 -623 660 0
252 516 -592 623 -660 0
252 516 592 623 660 0
252 -516 -592 -623 -660 0
-252 -516 623 0
-252 516 -623 0
-252 592 -660 0
-252 -592 660 0
-218 253 595 0
-253 -595 0
218 -253 0
254 638 663 0
-244 254 -255 0
254 -255 638 0
-244 254 663 0
244 -254 -638 0
-254 255 -663 0
255 506 -522 0
-255 -506 0
-255 522 0
-244 256 -596 -613 0
256 596 613 722 0
-244 256 596 613 0
256 -596 -613 722 0
-256 596 -613 0
-256 -596 613 0
244 -256 -722 0
257 -258 -259 643 645 0
257 -258 -259 -643 -645 0
-257 259 0
-257 -643 645 0
-257 258 0
-257 643 -645 0
258 -513 612 0
258 -672 743 0
258 612 743 0
258 -513 -672 0
-258 -612 672 0
-258 513 -743 0
259 260 261 720 721 0
259 260 261 -720 -721 0
-259 -260 0
-259 -720 721 0
-259 -261 0
-259 720 -721 0
260 612 -672 0
-260 -612 0
-260 672 0
261 -512 706 0
-261 512 0
-261 -706 0
262 -263 -266 506 752 0
262 -263 -266 -506 -752 0
-262 266 0
-262 -506 752 0
-262 263 0
-262 506 -752 0
263 264 265 515 742 0
263 264 265 -515 -742 0
-263 -264 0
-263 -515 742 0
-263 -265 0
-263 515 -742 0
264 665 -672 0
-264 -665 0
-264 672 0
265 -577 680 0
-265 577 0
-265 -680 0
266 513 665 0
266 -672 -743 0
266 665 -743 0
266 513 -672 0
-266 -665 672 0
-266 -513 743 0
267 -268 -274 -276 -277 0
-267 277 0
-267 268 0
-267 276 0
-267 274 0
268 -269 -272 -273 0
-268 269 0
-268 272 0
-268 273 0
269 270 271 514 573 0
269 270 271 -514 -573 0
-269 -270 0
-269 -514 573 0
-269 -271 0
-269 514 -573 0
270 672 -754 0
-270 -672 0
-270 754 0
271 550 -559 0
-271 -550 0
-271 559 0
272 552 558 564 565 0
-272 -565 0
-272 -564 0
-272 -552 0
-272 -558 0
273 548 551 -754 0
273 548 551 672 0
-273 -548 0
-273 -551 0
-273 -672 754 0
274 -275 506 0
274 -275 549 -686 0
-274 275 0
-274 -506 686 0
-274 -506 -549 0
275 -559 -701 0
275 577 689 0
275 -559 689 0
275 577 -701 0
-275 559 -577 0
-275 -689 701 0
276 -676 706 0
276 -512 753 0
276 -512 -676 0
276 706 753 0
-276 676 -753 0
-276 512 -706 0
277 -577 686 0
277 550 -653 0
277 -577 -653 0
277 550 686 0
-277 653 -686 0
-277 -550 577 0
278 -279 -289 -293 -297 0
-278 297 0
-278 279 0
-278 293 0
-278 289 0
279 280 281 -283 592 0
279 -280 281 -283 -592 0
-279 -281 0
-279 -280 592 0
-279 283 0
-279 280 -592 0
280 506 604 -636 0
-280 636 0
-280 -604 0
-280 -506 0
281 657 -668 0
281 -282 657 0
-281 -657 0
-281 282 668 0
282 506 546 0
282 506 -618 0
-282 -506 0
-282 -546 618 0
283 284 286 0
283 284 287 288 0
-283 -284 0
-283 -286 -287 0
-283 -286 -288 0
284 -506 -655 0
284 -285 576 -655 0
-284 655 0
-284 506 -576 0
-284 285 506 0
285 -714 717 0
-285 714 0
-285 -717 0
286 506 592 0
-286 -506 0
-286 -592 0
287 568 -617 624 0
-287 -568 0
-287 617 0
-287 -624 0
288 567 596 -748 0
-288 748 0
-288 -596 0
-288 -567 0
289 -290 -292 0
289 -290 577 672 0
-289 290 0
-289 292 -577 0
-289 292 -672 0
290 291 -598 0
290 291 506 560 0
-290 -291 0
-290 -560 598 0
-290 -506 598 0
291 506 -561 733 0
-291 -506 0
-291 561 0
-291 -733 0
292 506 721 0
-292 -506 0
-292 -721 0
255 293 294 -295 0
293 294 -295 -749 0
-293 295 0
-293 -294 0
-255 -293 749 0
294 506 -676 0
294 -506 753 0
-294 -506 -753 0
-294 506 676 0
295 296 598 0
295 296 -506 -560 0
-295 -296 0
-295 560 -598 0
-295 506 -598 0
218 296 -595 0
-296 595 0
-218 -296 0
297 -298 -301 -303 -304 0
-297 304 0
-297 298 0
-297 303 0
-297 301 0
298 299 -617 0
298 300 -649 0
298 -617 -649 0
298 299 300 0
-298 -300 617 0
-298 -299 649 0
299 506 -746 0
-299 -506 0
-299 746 0
300 506 -516 0
-300 -506 0
-300 516 0
218 301 302 0
301 302 -751 0
301 302 729 0
-301 -302 0
-218 -301 -729 751 0
255 302 -571 0
-302 571 0
-255 -302 0
-286 303 0
303 596 624 645 0
286 -303 -596 0
286 -303 -624 0
286 -303 -645 0
304 617 649 0
-299 -300 304 0
-300 304 649 0
-299 304 617 0
299 -304 -649 0
300 -304 -617 0
305 -306 -313 -324 -328 0
-305 328 0
-305 306 0
-305 324 0
-305 313 0
306 -307 312 -682 0
-83 306 -307 312 0
-306 307 0
-306 -312 0
83 -306 682 0
253 307 308 -309 702 0
-253 307 308 -309 -702 0
-307 -308 0
-253 -307 702 0
-307 309 0
253 -307 -702 0
255 308 -625 0
308 -625 728 0
-308 625 0
-255 -308 -728 0
280 309 310 311 712 0
-280 309 310 311 -712 0
-309 -310 0
280 -309 -712 0
-309 -311 0
-280 -309 712 0
310 567 -607 0
310 -567 748 0
-244 310 567 0
310 -567 607 0
244 -310 567 607 0
-310 -567 -607 -748 0
311 -506 -699 0
311 576 -699 -717 0
-311 699 0
-311 506 -576 0
-311 506 717 0
-11 312 -584 0
-312 584 0
11 -312 0
313 -314 -319 322 323 0
-313 319 0
-313 -323 0
-313 314 0
-313 -322 0
314 315 316 317 318 0
-314 -318 0
-314 -317 0
-314 -315 0
-314 -316 0
315 -506 -678 0
315 618 -678 -717 0
-315 678 0
-315 506 -618 0
-315 506 717 0
316 -506 -751 0
316 -717 729 -751 0
-316 751 0
-316 506 717 0
-316 506 -729 0
317 -506 -575 0
317 -575 -717 735 0
-317 575 0
-317 506 -735 0
-317 506 717 0
318 -506 -671 0
318 629 -671 -717 0
-318 671 0
-318 506 -629 0
-318 506 717 0
319 -320 -625 0
255 319 -320 728 0
-319 320 0
-319 625 -728 0
-255 -319 625 0
320 -321 -571 0
320 -321 749 0
-320 321 0
-320 571 -749 0
321 -577 653 0
321 -506 680 0
321 -506 -577 0
321 653 680 0
-321 577 -680 0
-321 506 -653 0
322 -506 -648 0
322 609 -648 -717 0
-322 648 0
-322 506 -609 0
-322 506 717 0
323 -506 -591 0
323 -591 681 -717 0
-323 591 0
-323 506 717 0
-323 506 -681 0
300 324 -325 327 656 0
-300 324 -325 327 -656 0
-324 -327 0
300 -324 -656 0
-324 325 0
-300 -324 656 0
-299 325 326 -718 0
299 325 326 718 0
-325 -326 0
299 -325 -718 0
-299 -325 718 0
-292 326 577 -625 663 0
-326 625 0
-326 -663 0
-326 -577 0
292 -326 0
327 -506 -727 0
327 587 -717 -727 0
-327 727 0
-327 506 -587 0
-327 506 717 0
328 -329 332 333 0
328 -329 332 -334 0
-328 329 0
-328 -332 0
-328 -333 334 0
329 331 652 733 0
329 -330 331 -652 0
-329 -331 0
-329 652 -733 0
-329 330 -652 0
330 506 -561 0
-330 -506 0
-330 561 0
-286 331 645 728 -749 0
-331 -645 0
286 -331 0
-331 749 0
-331 -728 0
-292 332 607 -638 672 0
-332 638 0
-332 -672 0
-332 -607 0
292 -332 0
-285 333 506 0
-333 -506 0
285 -333 0
334 -704 -716 0
334 629 729 0
334 629 -704 0
334 -716 729 0
-334 -629 716 0
-334 704 -729 0
335 -336 340 723 0
335 -336 340 344 0
-335 336 0
-335 -340 0
-335 -344 -723 0
336 -337 -667 0
336 337 667 0
-336 -337 667 0
-336 337 -667 0
337 338 506 0
-337 -506 0
-337 -338 0
-199 338 -339 0
338 -339 626 0
-338 339 0
199 -338 -626 0
73 201 339 0
339 605 635 0
201 339 635 0
73 339 605 0
-73 -339 -635 0
-201 -339 -605 0
340 -341 -619 0
340 -341 689 0
-340 341 0
-340 619 -689 0
341 -342 0
-191 341 -582 0
-193 341 -582 0
-341 342 582 0
191 193 -341 342 0
191 342 343 0
-191 -342 0
-342 -343 0
343 686 695 0
343 583 -686 0
343 603 686 0
-343 -583 -686 0
-343 -603 686 -695 0
-169 344 -509 0
169 344 509 0
-169 -344 509 0
169 -344 -509 0
345 -346 -347 -619 0
-341 345 -346 -347 0
-345 347 0
-345 346 0
341 -345 619 0
-89 346 -566 0
-77 346 -738 0
346 -566 -738 0
-77 -89 346 0
89 -346 738 0
77 -346 566 0
18 347 -588 0
-85 347 -599 0
347 -588 -599 0
18 -85 347 0
-18 -347 599 0
85 -347 588 0
338 348 -626 701 0
-338 -341 348 626 0
338 -341 348 -626 0
-338 348 626 701 0
-338 -348 -626 0
338 -348 626 0
341 -348 -701 0
349 -350 -351 -353 -355 0
-349 355 0
-349 350 0
-349 353 0
-349 351 0
-18 350 711 0
18 350 599 -711 0
350 -599 687 711 0
-18 -350 -711 0
18 -350 -599 -687 0
-350 -599 -711 0
18 -350 599 711 0
75 351 709 0
351 352 566 0
75 351 352 0
351 566 709 0
-75 -351 -566 0
-351 -352 -709 0
-71 -234 352 0
-234 352 709 0
234 -352 0
71 -352 -709 0
70 353 354 0
353 547 719 0
353 354 719 0
70 353 547 0
-70 -353 -719 0
-353 -354 -547 0
-71 -237 354 0
-237 354 547 0
237 -354 0
71 -354 -547 0
355 356 -661 0
169 355 356 506 0
-355 -356 0
-355 -506 661 0
-169 -355 661 0
356 357 582 0
356 357 586 0
-356 -357 0
-356 -582 -586 0
342 357 582 0
-357 -582 0
-342 -357 0
341 358 -359 -361 741 0
-341 358 -359 -361 -741 0
-358 361 0
341 -358 -741 0
-358 359 0
-341 -358 741 0
84 359 360 0
359 562 588 0
359 360 588 0
84 359 562 0
-84 -359 -588 0
-359 -360 -562 0
-71 -233 360 0
-233 360 562 0
233 -360 0
71 -360 -562 0
80 361 738 0
88 361 647 0
80 88 361 0
361 647 738 0
-80 -361 -647 0
-88 -361 -738 0
362 -363 -366 -383 -390 0
-362 390 0
-362 363 0
-362 383 0
-362 366 0
-198 363 364 365 646 0
198 363 364 365 -646 0
-363 -364 0
198 -363 646 0
-363 -365 0
-198 -363 -646 0
-14 364 703 0
-364 -703 0
14 -364 0
-82 365 -682 0
-365 682 0
82 -365 0
366 -367 -378 -584 0
10 366 -367 -378 0
-366 378 0
-366 367 0
-10 -366 584 0
367 -368 -373 375 376 0
-367 373 0
-367 -376 0
-367 368 0
-367 -375 0
368 369 370 371 372 0
-368 -372 0
-368 -371 0
-368 -369 0
-368 -370 0
369 -506 -553 0
-285 369 -553 618 0
-369 553 0
285 -369 506 0
-369 506 -618 0
370 -506 -610 0
-285 370 -610 681 0
-370 610 0
285 -370 506 0
-370 506 -681 0
371 -506 -704 0
-285 371 -704 729 0
-371 704 0
285 -371 506 0
-371 506 -729 0
372 -506 -716 0
-285 372 629 -716 0
-372 716 0
-372 506 -629 0
285 -372 506 0
373 374 657 0
-282 373 374 -668 0
-373 -374 0
-373 -657 668 0
282 -373 -657 0
-58 374 707 0
-374 -707 0
58 -374 0
375 -506 -734 0
-285 375 609 -734 0
-375 734 0
-375 506 -609 0
285 -375 506 0
-333 376 377 0
-333 376 553 -618 0
333 -376 0
-376 -377 -553 0
-376 -377 618 0
377 -569 -734 0
377 587 609 0
377 -569 609 0
377 587 -734 0
-377 569 -587 0
-377 -609 734 0
333 378 379 382 0
378 379 -380 382 0
-378 -382 0
-378 -379 0
-333 -378 380 0
379 -506 -569 0
-285 379 -569 587 0
-379 569 0
285 -379 506 0
-379 506 -587 0
380 -381 -655 0
380 -381 576 0
-380 381 0
-380 -576 655 0
381 -654 681 0
381 -610 735 0
381 -610 -654 0
381 681 735 0
-381 654 -735 0
-381 610 -681 0
382 -506 -654 0
-285 382 -654 735 0
-382 654 0
285 -382 506 0
-382 506 -735 0
383 -384 -386 389 -627 0
383 -384 386 389 627 0
-383 -389 0
-383 386 -627 0
-383 384 0
-383 -386 627 0
384 608 650 0
-70 384 385 0
384 385 650 0
-70 384 608 0
-384 -385 -608 0
70 -384 -650 0
-71 -224 385 0
-224 385 608 0
224 -385 0
71 -385 -608 0
386 387 388 -623 0
73 386 387 388 0
-386 -388 0
-386 -387 0
-73 -386 623 0
387 -676 -686 698 0
387 -686 -695 698 0
-387 686 0
-387 -698 0
-387 676 695 0
388 627 676 695 0
388 627 686 695 0
-388 -627 0
-388 -695 0
-388 -676 -686 0
216 389 -506 -622 0
-216 389 -622 735 0
-389 622 0
-216 -389 -735 0
216 -389 506 0
70 390 391 -393 0
390 391 -393 -650 0
-390 393 0
-390 -391 0
-70 -390 650 0
391 -392 -620 0
-391 620 0
-391 392 0
-71 -226 392 0
-226 392 620 0
226 -392 0
71 -392 -620 0
90 393 731 0
393 394 616 0
90 393 394 0
393 616 731 0
-90 -393 -616 0
-393 -394 -731 0
-71 -227 394 0
-227 394 731 0
227 -394 0
71 -394 -731 0
-141 395 -396 0
300 395 -396 568 0
-300 395 -396 -568 0
-395 396 0
141 -300 -395 568 0
141 300 -395 -568 0
20 396 -661 0
396 397 -679 0
396 -661 -679 0
20 396 397 0
-396 -397 661 0
-20 -396 679 0
344 397 506 0
99 397 506 0
-397 -506 0
-99 -344 -397 0
203 398 -400 401 0
398 399 -400 401 0
-398 400 0
-398 -401 0
-203 -398 -399 0
399 661 715 0
-399 -661 0
-399 -715 0
400 581 715 0
-141 -397 400 0
-397 400 581 0
-141 400 715 0
141 -400 -581 0
397 -400 -715 0
141 401 402 -717 0
141 401 -402 717 0
-141 -401 0
-401 -402 -717 0
-401 402 717 0
402 506 -750 0
-402 -506 0
-402 750 0
-141 403 -406 -708 0
403 404 -406 708 0
403 -404 -406 -708 0
-403 406 0
-403 -404 708 0
141 -403 404 -708 0
-176 -177 404 -405 730 0
-404 -730 0
177 -404 0
176 -404 0
-404 405 0
405 -675 -684 0
-405 675 0
-405 684 0
147 406 570 0
179 406 -576 0
406 570 -576 0
147 179 406 0
-179 -406 -570 0
-147 -406 576 0
103 407 -408 -413 0
407 -408 413 594 0
-407 408 0
-407 413 -594 0
-103 -407 -413 0
154 408 -684 0
408 409 -735 0
408 -684 -735 0
154 408 409 0
-408 -409 684 0
-154 -408 735 0
409 -410 411 0
-175 409 -410 -675 0
-409 410 0
-409 -411 675 0
175 -409 -411 0
-97 410 -585 0
-410 585 0
97 -410 0
411 412 684 0
-411 -684 0
-411 -412 0
-108 412 -508 675 0
-412 508 0
-412 -675 0
108 -412 0
99 413 506 0
166 413 506 -513 0
-166 413 506 513 0
-413 -506 0
-99 166 -413 513 0
-99 -166 -413 -513 0
414 -415 -502 503 589 0
414 -415 502 503 -589 0
-414 -503 0
-414 -502 -589 0
-414 415 0
-414 502 589 0
415 -416 -445 -492 -497 0
-415 497 0
-415 416 0
-415 492 0
-415 445 0
416 -417 -433 440 690 0
416 -417 433 440 -690 0
-416 -440 0
-416 -433 -690 0
-416 417 0
-416 433 690 0
417 -419 -424 557 0
417 -418 -419 -424 0
-417 424 0
-417 419 0
-417 418 -557 0
99 418 506 0
165 418 506 -514 0
-165 418 506 514 0
-418 -506 0
-99 165 -418 514 0
-99 -165 -418 -514 0
419 420 -423 0
419 420 -421 0
419 420 666 0
-419 -420 0
-419 421 423 -666 0
134 420 507 -574 0
134 420 -507 574 0
-134 -420 0
-420 507 574 0
-420 -507 -574 0
-205 421 -422 0
-160 -205 -208 421 0
205 -421 0
208 -421 422 0
160 -421 422 0
422 -580 -666 0
-422 580 0
-422 666 0
98 423 506 0
174 -206 423 506 0
-423 -506 0
-98 -174 -423 0
-98 206 -423 0
134 424 425 -427 0
135 424 425 -427 0
-424 427 0
-424 -425 0
-134 -135 -424 0
141 425 -426 -579 0
-410 425 -426 579 0
141 410 425 -579 0
-141 -425 -579 0
410 -425 579 0
-410 -425 426 0
426 -581 -633 0
-426 581 0
-426 633 0
-141 427 428 0
427 428 -429 -561 0
427 428 429 561 0
-427 -428 0
141 -427 -429 561 0
141 -427 429 -561 0
141 -175 428 -675 0
-175 -410 428 675 0
141 410 428 -675 0
-141 -428 -675 0
410 -428 675 0
175 -410 -428 0
429 430 506 0
429 506 -580 684 0
-429 -506 0
-429 -430 580 0
-429 -430 -684 0
430 580 0
-411 430 -666 0
430 -431 666 0
-430 431 -580 666 0
411 -430 -580 -666 0
431 -675 -684 0
412 431 684 0
431 -432 -684 0
-412 -431 684 0
-431 432 675 -684 0
432 -579 -633 -730 0
-432 579 0
-432 633 0
-432 730 0
-341 433 435 0
433 434 435 0
-433 -435 0
341 -433 -434 0
360 -394 434 0
-360 -434 0
394 -434 0
435 436 -437 -439 0
-341 435 437 -439 0
-435 439 0
-435 -436 -437 0
341 -435 437 0
75 -92 436 0
-75 -436 0
92 -436 0
354 434 437 438 0
-385 434 437 438 0
-434 -437 0
-437 -438 0
-354 385 -437 0
-70 341 -352 -386 438 0
386 -438 0
70 -438 0
352 -438 0
-341 -438 0
187 192 439 0
-187 -439 0
-192 -439 0
141 440 -444 0
141 440 441 0
141 440 -443 0
-141 -440 0
-440 -441 443 444 0
441 442 618 0
-97 119 441 442 0
-441 -442 0
97 -441 -618 0
-119 -441 -618 0
-127 442 -629 0
97 442 -629 0
-442 629 0
-97 127 -442 0
-124 443 -609 0
97 443 -609 0
-443 609 0
-97 124 -443 0
-105 444 -681 0
97 444 -681 0
-444 681 0
-97 105 -444 0
445 -446 -450 -457 -462 0
-445 462 0
-445 446 0
-445 457 0
-445 450 0
-141 446 -448 -714 0
446 447 -448 714 0
446 -447 -448 -714 0
-446 448 0
-446 -447 714 0
141 -446 447 -714 0
-97 447 -708 0
-447 708 0
97 -447 0
448 449 -570 693 0
180 448 -449 -693 0
448 -449 -570 -693 0
180 448 449 693 0
-448 -449 693 0
-448 449 -693 0
-180 -448 570 0
70 -80 -95 449 0
70 80 95 449 0
-70 -449 0
-80 95 -449 0
80 -95 -449 0
436 450 451 456 674 0
-436 450 451 456 -674 0
-450 -451 0
436 -450 -674 0
-450 -456 0
-436 -450 674 0
-97 451 455 0
-97 451 452 729 0
97 -451 0
-451 -455 -729 0
-451 -452 -455 0
106 112 452 -453 0
106 -112 452 519 0
-106 -452 0
112 -452 453 0
-112 -452 -519 0
-114 453 -454 0
114 453 576 0
-114 -453 454 0
114 -453 -576 0
454 518 730 0
454 517 -730 0
-454 -518 730 0
-454 -517 -730 0
455 580 596 0
455 -614 -636 0
455 596 -636 0
455 580 -614 0
-455 -596 614 0
-455 -580 636 0
456 -506 -729 0
-98 -452 456 -729 0
-456 729 0
98 -456 506 0
452 -456 506 0
418 457 458 -460 0
102 457 458 -460 0
-457 460 0
-457 -458 0
-102 -418 -457 0
458 459 -593 0
458 459 -614 0
-458 -459 0
-458 593 614 0
459 506 -596 0
98 459 506 0
-459 -506 0
-98 -459 596 0
-159 460 461 0
460 461 585 0
-460 -461 0
159 -460 -585 0
98 423 461 -580 0
205 423 461 -580 0
-461 580 0
-423 -461 0
-98 -205 -461 0
462 -463 -466 -468 -482 0
-462 482 0
-462 463 0
-462 468 0
-462 466 0
180 463 635 0
463 -464 -745 0
463 635 -745 0
180 463 -464 0
-463 464 -635 0
-180 -463 745 0
-75 -341 464 0
-341 -439 464 0
-341 464 -465 0
341 -464 0
75 439 -464 465 0
-80 -82 465 0
-82 -84 465 0
-82 -88 465 0
82 -465 0
80 84 88 -465 0
466 -546 636 0
-159 466 467 0
466 467 636 0
-159 466 -546 0
159 -466 -636 0
-466 -467 546 0
-97 430 467 0
97 -467 0
-430 -467 0
-437 468 -469 -479 563 0
437 468 -469 -479 -563 0
-468 479 0
437 -468 563 0
-468 469 0
-437 -468 -563 0
469 -470 -474 0
-469 470 0
-469 474 0
470 471 472 473 669 0
470 471 -472 473 -669 0
-470 -471 0
-470 472 -669 0
-470 -473 0
-470 -472 669 0
-204 471 -644 0
204 471 644 0
-204 -471 644 0
204 -471 -644 0
70 -88 90 472 0
70 88 -90 472 0
-70 -472 0
-88 -90 -472 0
88 90 -472 0
79 473 -744 0
-473 744 0
-79 -473 0
474 475 -476 478 -556 0
474 -475 -476 478 556 0
-474 -478 0
-474 475 556 0
-474 476 0
-474 -475 -556 0
-10 -13 475 0
10 13 475 0
10 -13 -475 0
-10 13 -475 0
-167 476 -477 -725 0
167 476 -477 725 0
-476 477 0
167 -476 -725 0
-167 -476 725 0
-341 477 -723 0
-344 477 586 0
477 586 -723 0
-341 -344 477 0
344 -477 723 0
341 -477 -586 0
478 506 -661 0
99 478 506 0
-478 -506 0
-99 -478 661 0
21 479 -480 0
479 -480 679 0
-479 480 0
-21 -479 -679 0
79 480 -481 -721 0
480 481 721 -744 0
480 -481 -721 -744 0
79 480 481 721 0
-480 -481 721 0
-480 481 -721 0
-79 -480 744 0
-352 392 481 506 0
-481 -506 0
352 -481 0
-392 -481 0
482 483 -485 -487 555 0
482 -483 -485 -487 -555 0
-482 487 0
-482 483 -555 0
-482 485 0
-482 -483 555 0
-84 -94 483 -484 0
84 94 483 -484 0
-483 484 0
-84 94 -483 0
84 -94 -483 0
70 79 484 0
-70 -484 0
-79 -484 0
485 486 -635 0
464 485 486 0
-485 -486 0
-464 -485 635 0
-410 486 581 0
-486 -581 0
410 -486 0
487 488 -489 -491 0
487 -489 491 658 0
-487 489 0
-487 491 -658 0
-487 -488 -491 0
488 661 713 715 0
-488 -661 0
-488 -715 0
-488 -713 0
-141 489 490 0
-467 489 490 0
489 490 546 0
-489 -490 0
141 467 -489 -546 0
-98 -159 490 746 0
159 -490 0
98 -490 0
-490 -746 0
99 491 506 0
167 491 506 -515 0
-167 491 506 515 0
-491 -506 0
-99 167 -491 515 0
-99 -167 -491 -515 0
98 492 -493 495 0
492 -493 495 -496 0
-492 493 0
-492 -495 0
-98 -492 496 0
493 494 -666 0
421 493 494 0
-493 -494 0
-421 -493 666 0
141 -410 494 -581 0
141 410 494 -633 0
-410 494 -581 633 0
410 -494 633 0
-141 -494 -633 0
-410 -494 581 0
141 -176 495 -730 0
-176 -410 495 730 0
141 410 495 -730 0
-141 -495 -730 0
410 -495 730 0
176 -410 -495 0
159 496 -593 0
459 496 -585 0
496 -585 -593 0
159 459 496 0
-459 -496 593 0
-159 -496 585 0
497 498 -499 500 603 0
497 498 499 500 -603 0
-497 -498 0
-497 -499 -603 0
-497 -500 0
-497 499 603 0
141 -174 498 -684 0
141 409 498 -684 0
-498 684 0
-141 -498 0
174 -409 -498 0
-436 -437 499 0
341 -437 499 0
437 -499 0
-341 436 -499 0
500 -501 683 0
500 501 -683 0
-500 -501 -683 0
-500 501 683 0
-82 -93 -484 501 0
82 93 -484 501 0
484 -501 0
-82 93 -501 0
82 -93 -501 0
8 -24 502 0
-8 24 502 0
-8 -24 -502 0
8 24 -502 0
-32 503 -639 0
32 503 639 -687 0
32 -503 687 0
-32 -503 639 0
32 -503 -639 0
7 -31 504 0
-7 31 504 0
-7 -31 -504 0
7 31 -504 0
1 2 0
-1 -2 0
964 0

